c 140_3_checker_6cl.cnf
c
c field = 140
c formula set type = 3_checker_6cl
c
p cnf 6 58
272 
274 
276 
-281 
-270 
-282 
273 
275 
277 
-280 
-271 
-283 
274 
276 
280 
-273 
-270 
-282 
275 
277 
281 
-272 
-271 
-283 
274 
276 
280 
-283 
-272 
-284 
275 
277 
281 
-282 
-273 
-285 
276 
280 
282 
-275 
-272 
-284 
277 
281 
283 
-274 
-273 
-285 
276 
280 
282 
-285 
-274 
-286 
277 
281 
283 
-284 
-275 
-287 
280 
282 
284 
-277 
-274 
-286 
281 
283 
285 
-276 
-275 
-287 
280 
282 
284 
-287 
-276 
-288 
281 
283 
285 
-286 
-277 
-289 
188 
218 
248 
-159 
-128 
-308 
189 
219 
249 
-158 
-129 
-309 
188 
218 
248 
-309 
-158 
-338 
189 
219 
249 
-308 
-159 
-339 
218 
248 
308 
-189 
-158 
-338 
219 
249 
309 
-188 
-159 
-339 
218 
248 
308 
-339 
-188 
-368 
219 
249 
309 
-338 
-189 
-369 
248 
308 
338 
-219 
-188 
-368 
249 
309 
339 
-218 
-189 
-369 
248 
308 
338 
-369 
-218 
-398 
249 
309 
339 
-368 
-219 
-399 
308 
338 
368 
-249 
-218 
-398 
309 
339 
369 
-248 
-219 
-399 
308 
338 
368 
-399 
-248 
-428 
309 
339 
369 
-398 
-249 
-429 
182 
214 
246 
-311 
-150 
-342 
183 
215 
247 
-310 
-151 
-343 
214 
246 
310 
-183 
-150 
-342 
215 
247 
311 
-182 
-151 
-343 
214 
246 
310 
-343 
-182 
-374 
215 
247 
311 
-342 
-183 
-375 
246 
310 
342 
-215 
-182 
-374 
247 
311 
343 
-214 
-183 
-375 
246 
310 
342 
-375 
-214 
-406 
247 
311 
343 
-374 
-215 
-407 
310 
342 
374 
-247 
-214 
-406 
311 
343 
375 
-246 
-215 
-407 
310 
342 
374 
-407 
-246 
-438 
311 
343 
375 
-406 
-247 
-439 
194 
222 
250 
-167 
-138 
-306 
195 
223 
251 
-166 
-139 
-307 
194 
222 
250 
-307 
-166 
-334 
195 
223 
251 
-306 
-167 
-335 
222 
250 
306 
-195 
-166 
-334 
223 
251 
307 
-194 
-167 
-335 
222 
250 
306 
-335 
-194 
-362 
223 
251 
307 
-334 
-195 
-363 
250 
306 
334 
-223 
-194 
-362 
251 
307 
335 
-222 
-195 
-363 
250 
306 
334 
-363 
-222 
-390 
251 
307 
335 
-362 
-223 
-391 
306 
334 
362 
-251 
-222 
-390 
307 
335 
363 
-250 
-223 
-391 
